10	5
0	4	1	4	2	3
1	1	7
2	0
3	2	7	8
4	2	7	5
5	1	9
6	1	10
7	1	6
8	1	10
9	1	8
10	1	11
11	0
0	0	0	0	0	0	0
1	3	0	0	1	1	0
2	3	0	0	4	4	1
3	10	0	5	0	5	3
4	9	4	4	0	0	4
5	8	0	0	1	0	0
6	6	1	4	3	4	0
7	6	3	0	4	0	0
8	9	0	0	0	0	4
9	8	0	4	4	0	0
10	5	0	5	4	1	2
11	0	0	0	0	0	0
4	5	5	5	5
